sat

(objectives
 ((bvadd PriceProv5 (bvadd PriceProv4 (bvadd PriceProv3 (bvadd PriceProv1 PriceProv2)))) (_ bv1059 32))
)
;; statistics
(
 :cnf-variables 2468
 :cnf-literals 12145
 :cnf-clauses 5105
 :sat-checks 9
 :sat-restarts 22
 :sat-decisions 51609
 :sat-random-decisions 26
 :sat-propagations 24910890
 :sat-theory-propagations 0
 :sat-watched-clauses-visited 28415957
 :sat-binary-watched-clauses-visited 16662859
 :sat-conflicts 5730
 :sat-theory-conflicts 0
 :theory-necessary-interface-equalities 0
 :theory-extra-interface-equalities 0
 :euf-total-calls 53978
 :euf-complete-calls 10
 :euf-conflicts 0
 :euf-implications 0
 :euf-explanations 0
 :euf-egraph-nodes-created 16268
 :euf-egraph-nodes-deleted 12560
 :euf-num-asserted-equalities 473457
 :euf-num-asserted-inequalities 381039
 :euf-num-merges 704837
 :euf-num-merges-undone 704837
 :euf-num-atoms-retold 2816
 :la-total-calls 53978
 :la-complete-calls 10
 :la-conflicts 0
 :la-implications 0
 :la-explanations 0
 :la-num-equalities-split 0
 :la-num-tableau-rows 0
 :la-num-tableau-variables 0
 :bv-total-calls 53978
 :bv-complete-calls 10
 :bv-conflicts 0
 :bv-implications 0
 :bv-explanations 0
 :fp-total-calls 53978
 :fp-complete-calls 10
 :fp-conflicts 0
 :fp-implications 0
 :fp-explanations 0
 :arr-total-calls 53978
 :arr-complete-calls 10
 :arr-conflicts 0
 :arr-implications 0
 :arr-explanations 0
 :arr-write-lemmas-added 0
 :arr-row-lemmas-added 0
 :arr-ext-lemmas-added 0
 :arr-const-lemmas-added 0
 :na-total-calls 53978
 :na-complete-calls 10
 :na-conflicts 0
 :na-implications 0
 :na-explanations 0
 :na-num_nonlinear_multiplications 0
 :na-num_axiom_checks 0
 :na-num_zero_lemmas 0
 :na-num_sign_lemmas 0
 :na-num_neutral_lemmas 0
 :na-num_proportionality_lemmas 0
 :na-num_bound_lemmas 0
 :na-num_tangent_lemmas 0
 :na-num_monotonicity_lemmas 0
 :na-num_sat_checks 0
 :na-axiom_check_time 0.000
 :na-sat_check_time 0.000
 :time-seconds 3.677
 :memory-mb 43.154
)
